out/bwp_4_12_1_lp.out
14
3 -0    3 1
3 2    3 3
3 4    3 4
3 7    3 7
3 8    3 8
3 9    3 9
-0 5    1 6
2 5    3 6
-0 12    1 13
2 12    3 13
0 0    2 4
-0 7    2 11
